# Solution for model micodag
# Objective value = 17.6026930878535
s_0_1 0
s_1_0 0
s_0_2 0
s_2_0 0.364003595057528
s_1_4 0
s_4_1 5.2071483456999346e-01
s_2_3 0
s_3_2 2.0409772943705207e-01
s_2_4 0
s_4_2 0
s_2_5 0
s_5_2 3.2298153282946185e-01
s_4_5 0
s_5_4 4.0849212755522135e-01
s_4_12 0
s_12_4 1.9191819295426349e-01
s_4_13 0
s_13_4 6.5813353094756266e-01
s_5_6 0
s_6_5 4.6242657174263435e-01
s_6_7 0
s_7_6 6.4941424778716161e-01
s_6_8 0
s_8_6 1.0884991227126788e+00
s_6_10 0
s_10_6 1.4317250667471093e-01
s_6_11 0
s_11_6 8.4788426734340394e-01
s_6_14 0
s_14_6 6.7220820899353928e-01
s_7_8 0
s_8_7 1.3025885095852274e+00
s_7_9 0
s_9_7 0
s_8_9 0
s_9_8 9.6326493182231410e-02
s_9_10 8.8707140228316561e-01
s_10_9 0
s_10_11 0
s_11_10 5.1472354620778038e-01
s_14_15 0
s_15_14 4.0334212358689303e-01
s_0_0 5.7788052636491294e-01
s_1_1 1.9726836062923736e+00
s_2_2 9.5500653127661028e-01
s_3_3 6.0115188741140191e-01
s_4_4 6.1630620919317991e-01
s_5_5 6.2016938919994935e-01
s_6_6 7.0551841453696884e-01
s_7_7 1.0285675712233360e+00
s_8_8 1.8514061624148033e+00
s_9_9 1.5873040799979767e+00
s_10_10 9.5090374069612427e-01
s_11_11 1.0717587869338239e+00
s_12_12 0.644753075124842
s_13_13 9.8765386083036866e-01
s_14_14 1.8768364254160517e+00
s_15_15 1.0124849642818079e+00
Gamma_0_0 7.6018453441576561e-01
Gamma_0_1 0
Gamma_0_2 0
Gamma_0_3 0
Gamma_0_4 0
Gamma_0_5 0
Gamma_0_6 0
Gamma_0_7 0
Gamma_0_8 0
Gamma_0_9 0
Gamma_0_10 0
Gamma_0_11 0
Gamma_0_12 0
Gamma_0_13 0
Gamma_0_14 0
Gamma_0_15 0
Gamma_1_0 0
Gamma_1_1 1.4045225545687670e+00
Gamma_1_2 0
Gamma_1_3 0
Gamma_1_4 0
Gamma_1_5 0
Gamma_1_6 0
Gamma_1_7 0
Gamma_1_8 0
Gamma_1_9 0
Gamma_1_10 0
Gamma_1_11 0
Gamma_1_12 0
Gamma_1_13 0
Gamma_1_14 0
Gamma_1_15 0
Gamma_2_0 0.603327104527494
Gamma_2_1 0
Gamma_2_2 9.7724435597071213e-01
Gamma_2_3 0
Gamma_2_4 0
Gamma_2_5 0
Gamma_2_6 0
Gamma_2_7 0
Gamma_2_8 0
Gamma_2_9 0
Gamma_2_10 0
Gamma_2_11 0
Gamma_2_12 0
Gamma_2_13 0
Gamma_2_14 0
Gamma_2_15 0
Gamma_3_0 0
Gamma_3_1 0
Gamma_3_2 4.5177176697648291e-01
Gamma_3_3 7.7533985284609475e-01
Gamma_3_4 0
Gamma_3_5 0
Gamma_3_6 0
Gamma_3_7 0
Gamma_3_8 0
Gamma_3_9 0
Gamma_3_10 0
Gamma_3_11 0
Gamma_3_12 0
Gamma_3_13 0
Gamma_3_14 0
Gamma_3_15 0
Gamma_4_0 0
Gamma_4_1 7.2160573346530144e-01
Gamma_4_2 0
Gamma_4_3 0
Gamma_4_4 7.8505172389670064e-01
Gamma_4_5 0
Gamma_4_6 0
Gamma_4_7 0
Gamma_4_8 0
Gamma_4_9 0
Gamma_4_10 0
Gamma_4_11 0
Gamma_4_12 0
Gamma_4_13 0
Gamma_4_14 0
Gamma_4_15 0
Gamma_5_0 0
Gamma_5_1 0
Gamma_5_2 5.6831464245562413e-01
Gamma_5_3 0
Gamma_5_4 6.3913388859864362e-01
Gamma_5_5 7.8750834230498845e-01
Gamma_5_6 0
Gamma_5_7 0
Gamma_5_8 0
Gamma_5_9 0
Gamma_5_10 0
Gamma_5_11 0
Gamma_5_12 0
Gamma_5_13 0
Gamma_5_14 0
Gamma_5_15 0
Gamma_6_0 0
Gamma_6_1 0
Gamma_6_2 0
Gamma_6_3 0
Gamma_6_4 0
Gamma_6_5 -0.680019537765375
Gamma_6_6 8.3995143582053056e-01
Gamma_6_7 0
Gamma_6_8 0
Gamma_6_9 0
Gamma_6_10 0
Gamma_6_11 0
Gamma_6_12 0
Gamma_6_13 0
Gamma_6_14 0
Gamma_6_15 0
Gamma_7_0 0
Gamma_7_1 0
Gamma_7_2 0
Gamma_7_3 0
Gamma_7_4 0
Gamma_7_5 0
Gamma_7_6 8.0586242485126669e-01
Gamma_7_7 1.0141832039741825e+00
Gamma_7_8 0
Gamma_7_9 0
Gamma_7_10 0
Gamma_7_11 0
Gamma_7_12 0
Gamma_7_13 0
Gamma_7_14 0
Gamma_7_15 0
Gamma_8_0 0
Gamma_8_1 0
Gamma_8_2 0
Gamma_8_3 0
Gamma_8_4 0
Gamma_8_5 0
Gamma_8_6 -1.0433116134274938e+00
Gamma_8_7 1.1413099971459233e+00
Gamma_8_8 1.3606638682697514e+00
Gamma_8_9 0
Gamma_8_10 0
Gamma_8_11 0
Gamma_8_12 0
Gamma_8_13 0
Gamma_8_14 0
Gamma_8_15 0
Gamma_9_0 0
Gamma_9_1 0
Gamma_9_2 0
Gamma_9_3 0
Gamma_9_4 0
Gamma_9_5 0
Gamma_9_6 0
Gamma_9_7 0
Gamma_9_8 3.1036509659147071e-01
Gamma_9_9 1.2598825659552471e+00
Gamma_9_10 -9.4184468055150528e-01
Gamma_9_11 0
Gamma_9_12 0
Gamma_9_13 0
Gamma_9_14 0
Gamma_9_15 0
Gamma_10_0 0
Gamma_10_1 0
Gamma_10_2 0
Gamma_10_3 0
Gamma_10_4 0
Gamma_10_5 0
Gamma_10_6 3.7838143013989328e-01
Gamma_10_7 0
Gamma_10_8 0
Gamma_10_9 0
Gamma_10_10 9.7514293346982028e-01
Gamma_10_11 0
Gamma_10_12 0
Gamma_10_13 0
Gamma_10_14 0
Gamma_10_15 0
Gamma_11_0 0
Gamma_11_1 0
Gamma_11_2 0
Gamma_11_3 0
Gamma_11_4 0
Gamma_11_5 0
Gamma_11_6 -9.2080631369653709e-01
Gamma_11_7 0
Gamma_11_8 0
Gamma_11_9 0
Gamma_11_10 -7.1744236438043052e-01
Gamma_11_11 1.0352578359683280e+00
Gamma_11_12 0
Gamma_11_13 0
Gamma_11_14 0
Gamma_11_15 0
Gamma_12_0 0
Gamma_12_1 0
Gamma_12_2 0
Gamma_12_3 0
Gamma_12_4 -4.3808468696618863e-01
Gamma_12_5 0
Gamma_12_6 0
Gamma_12_7 0
Gamma_12_8 0
Gamma_12_9 0
Gamma_12_10 0
Gamma_12_11 0
Gamma_12_12 8.0296517678218371e-01
Gamma_12_13 0
Gamma_12_14 0
Gamma_12_15 0
Gamma_13_0 0
Gamma_13_1 0
Gamma_13_2 0
Gamma_13_3 0
Gamma_13_4 -8.1125429487156742e-01
Gamma_13_5 0
Gamma_13_6 0
Gamma_13_7 0
Gamma_13_8 0
Gamma_13_9 0
Gamma_13_10 0
Gamma_13_11 0
Gamma_13_12 0
Gamma_13_13 9.9380775848771219e-01
Gamma_13_14 0
Gamma_13_15 0
Gamma_14_0 0
Gamma_14_1 0
Gamma_14_2 0
Gamma_14_3 0
Gamma_14_4 0
Gamma_14_5 0
Gamma_14_6 -8.1988304592395445e-01
Gamma_14_7 0
Gamma_14_8 0
Gamma_14_9 0
Gamma_14_10 0
Gamma_14_11 0
Gamma_14_12 0
Gamma_14_13 0
Gamma_14_14 1.3699767974006174e+00
Gamma_14_15 0
Gamma_15_0 0
Gamma_15_1 0
Gamma_15_2 0
Gamma_15_3 0
Gamma_15_4 0
Gamma_15_5 0
Gamma_15_6 0
Gamma_15_7 0
Gamma_15_8 0
Gamma_15_9 0
Gamma_15_10 0
Gamma_15_11 0
Gamma_15_12 0
Gamma_15_13 0
Gamma_15_14 -0.635092216600782
Gamma_15_15 1.0062231185387314e+00
psi_0 6
psi_1 6
psi_2 5
psi_3 0
psi_4 5
psi_5 4
psi_6 3
psi_7 2
psi_8 1
psi_9 0
psi_10 1
psi_11 0
psi_12 0
psi_13 0
psi_14 1
psi_15 0
g_0_0 0
g_0_1 0
g_0_2 0
g_0_3 0
g_0_4 0
g_0_5 0
g_0_6 0
g_0_7 0
g_0_8 0
g_0_9 0
g_0_10 0
g_0_11 0
g_0_12 0
g_0_13 0
g_0_14 0
g_0_15 0
g_1_0 0
g_1_1 0
g_1_2 0
g_1_3 0
g_1_4 0
g_1_5 0
g_1_6 0
g_1_7 0
g_1_8 0
g_1_9 0
g_1_10 0
g_1_11 0
g_1_12 0
g_1_13 0
g_1_14 0
g_1_15 0
g_2_0 1
g_2_1 0
g_2_2 0
g_2_3 0
g_2_4 0
g_2_5 0
g_2_6 0
g_2_7 0
g_2_8 0
g_2_9 0
g_2_10 0
g_2_11 0
g_2_12 0
g_2_13 0
g_2_14 0
g_2_15 0
g_3_0 0
g_3_1 0
g_3_2 1
g_3_3 0
g_3_4 0
g_3_5 0
g_3_6 0
g_3_7 0
g_3_8 0
g_3_9 0
g_3_10 0
g_3_11 0
g_3_12 0
g_3_13 0
g_3_14 0
g_3_15 0
g_4_0 0
g_4_1 1
g_4_2 0
g_4_3 0
g_4_4 0
g_4_5 0
g_4_6 0
g_4_7 0
g_4_8 0
g_4_9 0
g_4_10 0
g_4_11 0
g_4_12 0
g_4_13 0
g_4_14 0
g_4_15 0
g_5_0 0
g_5_1 0
g_5_2 1
g_5_3 0
g_5_4 1
g_5_5 0
g_5_6 0
g_5_7 0
g_5_8 0
g_5_9 0
g_5_10 0
g_5_11 0
g_5_12 0
g_5_13 0
g_5_14 0
g_5_15 0
g_6_0 0
g_6_1 0
g_6_2 0
g_6_3 0
g_6_4 0
g_6_5 1
g_6_6 0
g_6_7 0
g_6_8 0
g_6_9 0
g_6_10 0
g_6_11 0
g_6_12 0
g_6_13 0
g_6_14 0
g_6_15 0
g_7_0 0
g_7_1 0
g_7_2 0
g_7_3 0
g_7_4 0
g_7_5 0
g_7_6 1
g_7_7 0
g_7_8 0
g_7_9 0
g_7_10 0
g_7_11 0
g_7_12 0
g_7_13 0
g_7_14 0
g_7_15 0
g_8_0 0
g_8_1 0
g_8_2 0
g_8_3 0
g_8_4 0
g_8_5 0
g_8_6 1
g_8_7 1
g_8_8 0
g_8_9 0
g_8_10 0
g_8_11 0
g_8_12 0
g_8_13 0
g_8_14 0
g_8_15 0
g_9_0 0
g_9_1 0
g_9_2 0
g_9_3 0
g_9_4 0
g_9_5 0
g_9_6 0
g_9_7 0
g_9_8 1
g_9_9 0
g_9_10 1
g_9_11 0
g_9_12 0
g_9_13 0
g_9_14 0
g_9_15 0
g_10_0 0
g_10_1 0
g_10_2 0
g_10_3 0
g_10_4 0
g_10_5 0
g_10_6 1
g_10_7 0
g_10_8 0
g_10_9 0
g_10_10 0
g_10_11 0
g_10_12 0
g_10_13 0
g_10_14 0
g_10_15 0
g_11_0 0
g_11_1 0
g_11_2 0
g_11_3 0
g_11_4 0
g_11_5 0
g_11_6 1
g_11_7 0
g_11_8 0
g_11_9 0
g_11_10 1
g_11_11 0
g_11_12 0
g_11_13 0
g_11_14 0
g_11_15 0
g_12_0 0
g_12_1 0
g_12_2 0
g_12_3 0
g_12_4 1
g_12_5 0
g_12_6 0
g_12_7 0
g_12_8 0
g_12_9 0
g_12_10 0
g_12_11 0
g_12_12 0
g_12_13 0
g_12_14 0
g_12_15 0
g_13_0 0
g_13_1 0
g_13_2 0
g_13_3 0
g_13_4 1
g_13_5 0
g_13_6 0
g_13_7 0
g_13_8 0
g_13_9 0
g_13_10 0
g_13_11 0
g_13_12 0
g_13_13 0
g_13_14 0
g_13_15 0
g_14_0 0
g_14_1 0
g_14_2 0
g_14_3 0
g_14_4 0
g_14_5 0
g_14_6 1
g_14_7 0
g_14_8 0
g_14_9 0
g_14_10 0
g_14_11 0
g_14_12 0
g_14_13 0
g_14_14 0
g_14_15 0
g_15_0 0
g_15_1 0
g_15_2 0
g_15_3 0
g_15_4 0
g_15_5 0
g_15_6 0
g_15_7 0
g_15_8 0
g_15_9 0
g_15_10 0
g_15_11 0
g_15_12 0
g_15_13 0
g_15_14 1
g_15_15 0
T_0 5.4838813346631810e-01
T_1 -6.7939485244389175e-01
T_2 4.6037099491684330e-02
T_3 5.0890765189816989e-01
T_4 4.8401134611226837e-01
T_5 4.7776262987059681e-01
T_6 3.4882240663094422e-01
T_7 -2.8167126760138217e-02
T_8 -6.1594543816158875e-01
T_9 -4.6203702999405039e-01
T_10 5.0342440596409688e-02
T_11 -6.9301025140973138e-02
T_12 0.438887864747997
T_13 1.2422985907917905e-02
T_14 -6.2958760698536764e-01
T_15 -1.2407669796260734e-02
